3 3 2
25 2 82 1 75 2 4 0 5 1 189 2 14 1 15 0 145 2 169 0 138 2 71 1 43 0 140 2 32 1 86 0 41 2 82 1 71 2 32 1 75 0 151 2 112 1 165 0 91 2 102 
25 1 45 0 85 1 44 2 126 1 180 0 1 1 66 0 104 2 81 0 10 2 8 1 93 0 91 2 36 0 193 2 83 0 173 2 110 0 5 2 56 1 39 0 148 1 57 2 195 1 184 
25 0 109 2 145 0 126 1 63 0 74 1 2 0 29 2 73 1 152 2 20 0 22 1 73 2 92 1 56 2 164 1 108 0 129 1 50 2 22 0 126 1 42 0 21 1 172 2 23 0 136 

-------------
